12
E9001 (custom QMOF linker, 2 X)
C   1.404594 -0.083113 -0.125826
C   0.592011 -0.197350 -1.266947
C  -0.799437 -0.117167 -1.158340
C  -1.407345  0.078954  0.093651
C  -0.594907  0.193067  1.233804
C   0.796664  0.112864  1.125189
H   1.030847 -0.348885 -2.245308
H  -1.398694 -0.208891 -2.055673
H  -1.033260  0.344584  2.212243
H   1.395456  0.204601  2.022677
X   2.877641 -0.167425 -0.236139
X  -2.879601  0.164458  0.213217
0         1         A
1         2         A
2         3         A
3         4         A
4         5         A
5         0         A
1         6         S
2         7         S
4         8         S
5         9         S
0         10        S
3         11        S
