12
E9006 (custom QMOF linker, 2 X)
C   1.243921 -0.135179  0.087323
C   1.131691  1.237989 -0.190819
C  -0.123755  1.822221 -0.367875
C  -1.280758  1.047156 -0.270216
C  -1.194144 -0.327166  0.006910
C   0.074457 -0.911074  0.184542
H   2.013559  1.861205 -0.271701
H  -0.200418  2.880577 -0.581772
H  -2.242057  1.524857 -0.411816
H   0.150739 -1.970055  0.398544
X   2.572901 -0.758755  0.275768
X  -2.423287 -1.145184  0.109592
0         1         A
1         2         A
2         3         A
3         4         A
4         5         A
5         0         A
1         6         S
2         7         S
3         8         S
5         9         S
0         10        S
4         11        S
