22
E9019 (custom QMOF linker, 2 X)
C   3.543155 -0.267357 -0.090478
C   2.694699 -0.683752 -1.130611
C   1.307009 -0.579862 -0.999178
C   0.737163 -0.058494  0.175367
C  -0.737658  0.051387  0.315411
C  -1.529311  0.472683 -0.767168
C  -2.917022  0.576625 -0.635336
C  -3.543626  0.260588  0.581247
C  -2.753549 -0.161270  1.664275
C  -1.365789 -0.264138  1.532786
C   1.587099  0.357088  1.215119
C   2.974885  0.254229  1.083235
H   3.102447 -1.093644 -2.046264
H   0.678720 -0.924746 -1.810835
H  -1.073577  0.739674 -1.712423
H  -3.497855  0.908171 -1.486877
H  -3.207560 -0.415682  2.613928
H  -0.785489 -0.608316  2.379706
H   1.179354  0.779164  2.125108
H   3.601987  0.587065  1.900777
X   5.012584 -0.375034 -0.225651
X  -5.012835  0.371411  0.716265
0         1         A
1         2         A
2         3         A
3         4         S
4         5         A
5         6         A
6         7         A
7         8         A
8         9         A
3         10        A
10        11        A
11        0         A
9         4         A
1         12        S
2         13        S
5         14        S
6         15        S
8         16        S
9         17        S
10        18        S
11        19        S
0         20        S
7         21        S
