12
E9013 (custom QMOF linker, 4 X)
C   1.266642  0.605605 -0.179704
C   0.086821  1.352194 -0.324482
C  -1.178341  0.769644 -0.150308
C  -1.267022 -0.616585  0.133846
C  -0.086821 -1.352195  0.324476
C   1.178719 -0.758665  0.196164
H   0.154378  2.404359 -0.576962
H  -0.154376 -2.404361  0.576956
X   2.553248  1.276469 -0.481348
X  -2.365055  1.654501 -0.221976
X  -2.555663 -1.346502  0.188854
X   2.367470 -1.584465  0.514476
0         1         A
1         2         A
2         3         A
3         4         A
4         5         A
5         0         A
1         6         S
4         7         S
0         8         S
2         9         S
3         10        S
5         11        S
