10
E9018 (custom QMOF linker, 2 X)
C  -1.923821 -0.760465  0.053182
C  -0.612719 -0.957845  0.273679
C   0.457191  0.061790  0.214525
C   1.727025 -0.279274  0.458420
H  -2.563687 -1.631145  0.141395
H  -0.314641 -1.971280  0.519945
H   0.239919  1.088042 -0.023188
H   1.973146 -1.307148  0.700435
X  -2.607026  0.504172 -0.296983
X   2.825009  0.699244  0.411456
0         1         D
1         2         S
2         3         D
0         4         S
1         5         S
2         6         S
3         7         S
0         8         S
3         9         S
