18
E9016 (custom QMOF linker, 2 X)
C   2.536870 -0.138165 -0.031541
C   2.204217  0.973877  0.760633
C   0.867851  1.320304  0.976028
C  -0.161046  0.560353  0.402689
C  -1.505792  0.902326  0.614678
C  -2.536870  0.138156  0.038232
C  -2.204216 -0.973877 -0.753953
C  -0.867850 -1.320301 -0.969353
C   0.161046 -0.560353 -0.396010
C   1.505792 -0.902330 -0.607993
H   2.977858  1.579159  1.216139
H   0.639490  2.182699  1.591138
H  -1.747612  1.762844  1.228047
H  -2.977857 -1.579156 -1.209464
H  -0.639490 -2.182699 -1.584458
H   1.747612 -1.762837 -1.221378
X   3.955504 -0.496657 -0.253522
X  -3.955505  0.496653  0.260207
0         1         A
1         2         A
2         3         A
3         4         A
4         5         A
5         6         A
6         7         A
7         8         A
8         9         A
9         0         A
8         3         A
1         10        S
2         11        S
4         12        S
6         13        S
7         14        S
9         15        S
0         16        S
5         17        S
