23
E9025 (custom QMOF linker, 2 X)
C  -3.767604  0.469475  0.414931
C  -2.675497  1.198306 -0.086357
C  -1.368372  0.847247  0.263698
C  -1.130534 -0.247597  1.112286
O   0.165487 -0.620083  1.498716
C   1.321862 -0.469312  0.719096
C   1.290102 -0.553958 -0.683465
C   2.466381 -0.414735 -1.425990
C   3.695921 -0.200879 -0.779710
C   3.725117 -0.137266  0.624886
C   2.547277 -0.277266  1.364770
C  -2.216804 -0.961033  1.628473
C  -3.525002 -0.612578  1.279855
H  -2.829757  2.044668 -0.743806
H  -0.546120  1.441813 -0.112146
H   0.360634 -0.746775 -1.202866
H   2.412642 -0.481714 -2.505337
H   4.657577  0.019137  1.152773
H   2.585750 -0.228254  2.445659
H  -2.045745 -1.795166  2.297175
H  -4.345284 -1.189318  1.688656
X  -5.149763  0.842910  0.042068
X   4.938992 -0.053150 -1.568250
0         1         A
1         2         A
2         3         A
3         4         S
4         5         S
5         6         A
6         7         A
7         8         A
8         9         A
9         10        A
3         11        A
11        12        A
12        0         A
10        5         A
1         13        S
2         14        S
6         15        S
7         16        S
9         17        S
10        18        S
11        19        S
12        20        S
0         21        S
8         22        S
