12
E9024 (custom QMOF linker, 2 X)
C   0.545600 -0.634286  0.049419
C  -0.492004 -1.392444  0.622304
C  -1.749623 -0.830124  0.843019
C  -1.991780  0.496934  0.496827
C  -0.984640  1.260941 -0.093500
C   0.284229  0.708185 -0.346593
H  -0.320826 -2.416627  0.930946
H  -2.534696 -1.421982  1.295831
H  -2.966891  0.932039  0.674357
H  -1.209611  2.280334 -0.382878
X   1.884947 -1.259342 -0.049919
X   1.267158  1.540052 -1.078891
0         1         A
1         2         A
2         3         A
3         4         A
4         5         A
5         0         A
1         6         S
2         7         S
3         8         S
4         9         S
0         10        S
5         11        S
