12
E9020 (custom QMOF linker, 3 X)
C  -1.081219 -0.885344 -0.021598
C   0.234501 -1.378555 -0.050451
C   1.331703 -0.502179 -0.029305
C   1.101388  0.883207  0.021348
C  -0.207363  1.394387  0.050766
C  -1.291947  0.502342  0.028962
H   0.404097 -2.447569 -0.089469
H   1.942772  1.565268  0.037921
H  -2.303150  0.889261  0.051408
X  -2.234287 -1.814085 -0.044097
X   2.712680 -1.035561 -0.060134
X  -0.444379  2.855061  0.104125
0         1         A
1         2         A
2         3         A
3         4         A
4         5         A
5         0         A
1         6         S
3         7         S
5         8         S
0         9         S
2         10        S
4         11        S
