14
E9027 (custom QMOF linker, 2 X)
C  -1.068181 -0.864994 -0.233627
C   0.248134 -1.355786 -0.197351
C   1.330993 -0.493005  0.037207
C   1.085509  0.876138  0.236950
C  -0.224354  1.385957  0.204317
N  -0.470061  2.790200  0.409713
O   0.474983  3.578708  0.620163
O  -1.752490  3.288596  0.377643
C  -1.293998  0.506400 -0.031793
H   0.429394 -2.412314 -0.352205
H   1.915173  1.547780  0.418377
H  -2.305127  0.891703 -0.058316
X  -2.206292 -1.779317 -0.481369
X   2.712955 -1.023553  0.072822
0         1         A
1         2         A
2         3         A
3         4         A
4         5         S
5         6         D
5         7         S
4         8         A
8         0         A
1         9         S
3         10        S
8         11        S
0         12        S
2         13        S
