14
E9028 (custom QMOF linker, 2 X)
C  -1.526481 -0.161319 -0.811879
C  -0.764281  0.372690  0.407764
C   0.692184  0.738575  0.081152
C   1.569083 -0.495324 -0.168219
H  -1.090067 -1.125733 -1.145968
H  -1.455631  0.563538 -1.652135
H  -1.274085  1.291013  0.774687
H  -0.789601 -0.377169  1.229143
H   0.722535  1.410890 -0.804661
H   1.105798  1.302894  0.946205
H   1.496544 -1.194142  0.693674
H   1.229935 -1.030130 -1.079882
X  -2.965887 -0.384642 -0.470615
X   2.996726 -0.090689 -0.358825
0         1         S
1         2         S
2         3         S
0         4         S
0         5         S
1         6         S
1         7         S
2         8         S
2         9         S
3         10        S
3         11        S
0         12        S
3         13        S
