22
E9033 (custom QMOF linker, 2 X)
C   1.322965  0.094472 -0.072589
C   0.866054 -0.126809  1.394337
C  -0.678947 -0.234110  1.481397
C  -1.323102 -0.089311  0.076517
C  -0.896718  1.280275 -0.516810
C   0.648281  1.387584 -0.603865
C  -0.741459 -1.206627 -0.833654
C   0.802765 -1.099366 -0.920679
H   1.326716 -1.056351  1.797018
H   1.211626  0.716765  2.032604
H  -1.063926  0.558733  2.160818
H  -0.959185 -1.215104  1.925835
H  -1.286726  2.108087  0.116469
H  -1.335990  1.405199 -1.531621
H   0.949910  1.563976 -1.660422
H   0.988824  2.266131 -0.011743
H  -1.018953 -2.206477 -0.431295
H  -1.174233 -1.126838 -1.855874
H   1.103363 -0.968623 -1.984231
H   1.258646 -2.048279 -0.559663
X   2.829687  0.217606 -0.143493
X  -2.830806 -0.175549  0.175480
0         1         S
1         2         S
2         3         S
3         4         S
4         5         S
3         6         S
6         7         S
5         0         S
7         0         S
1         8         S
1         9         S
2         10        S
2         11        S
4         12        S
4         13        S
5         14        S
5         15        S
6         16        S
6         17        S
7         18        S
7         19        S
0         20        S
3         21        S
