11
E9036 (custom QMOF linker, 2 X)
C  -0.376185 -0.488178 -0.302214
C   0.819350 -1.226826 -0.317504
C   1.989650 -0.690587  0.216142
C   1.964499  0.587757  0.765502
N   0.815629  1.310799  0.749791
C  -0.346586  0.830914  0.225141
H   0.839946 -2.235737 -0.711636
H   2.905023 -1.268208  0.217895
H   2.862458  1.013130  1.193270
X  -1.617816 -1.148270 -0.763979
X  -1.498870  1.754060  0.180333
0         1         A
1         2         A
2         3         A
3         4         A
4         5         A
5         0         A
1         6         S
2         7         S
3         8         S
0         9         S
5         10        S
