18
E9037 (custom QMOF linker, 2 X)
C  -1.498172 -0.810999  0.256661
C  -2.241857  0.374664  0.235507
C  -1.625779  1.604505  0.035488
C  -0.240313  1.697581 -0.143995
C   0.542104  0.511548 -0.142762
C   1.931241  0.542619 -0.399310
C   2.695540 -0.621229 -0.339675
C   2.096674 -1.836060 -0.026847
C   0.721578 -1.905233  0.189944
C  -0.086666 -0.749655  0.094878
H  -3.318339  0.349472  0.357423
H  -2.239544  2.497634  0.038939
H   2.440727  1.455849 -0.668097
H   3.760337 -0.578797 -0.530252
H   2.700106 -2.732268  0.041053
H   0.311461 -2.869194  0.450932
X  -2.249246 -2.079553  0.405841
X   0.343690  3.052677 -0.276930
0         1         A
1         2         A
2         3         A
3         4         A
4         5         A
5         6         A
6         7         A
7         8         A
8         9         A
9         0         A
9         4         A
1         10        S
2         11        S
5         12        S
6         13        S
7         14        S
8         15        S
0         16        S
3         17        S
