11
E9030 (custom QMOF linker, 2 X)
C   1.304434 -0.297707 -0.351604
C  -0.044385  0.077770  0.268809
C  -1.142047  0.135522 -0.797497
H   1.588516  0.451919 -1.122429
H   1.229273 -1.291175 -0.844683
H   0.041551  1.071476  0.762789
H  -0.318522 -0.677692  1.038912
H  -1.237683 -0.854320 -1.294305
H  -0.878340  0.888754 -1.572038
X   2.366985 -0.355218  0.699857
X  -2.454850  0.498651 -0.178967
0         1         S
1         2         S
0         3         S
0         4         S
1         5         S
1         6         S
2         7         S
2         8         S
0         9         S
2         10        S
