9
E9032 (custom QMOF linker, 2 X)
C   1.229629  0.327528  0.190126
C   0.740785 -0.973539  0.141066
C  -0.650818 -1.036568 -0.001054
C  -1.253914  0.215044 -0.063452
S  -0.062613  1.398950  0.057435
H   1.367489 -1.853488  0.205693
H  -1.196376 -1.969613 -0.056190
X   2.639169  0.709630  0.333763
X  -2.691886  0.468180 -0.210407
0         1         A
1         2         A
2         3         A
3         4         A
4         0         A
1         5         S
2         6         S
0         7         S
3         8         S
